unsat
(:cnf-encoding-aux-vars   6
 :eliminated-applications 3
 :eliminated-vars         30
 :max-memory              18.29
 :memory                  18.06
 :nlsat-conflicts         3
 :nlsat-decisions         12
 :nlsat-learned-added     2
 :nlsat-propagations      13
 :num-allocs              9253
 :rlimit-count            14940
 :time                    0.01
 :total-time              0.01)
